c "894498.clq"
p edge 138 536
e 1 5
e 1 6
e 1 7
e 1 8
e 1 12
e 1 13
e 1 16
e 1 18
e 1 23
e 1 27
e 1 32
e 1 34
e 1 47
e 1 50
e 1 51
e 1 65
e 1 78
e 1 89
e 1 104
e 1 109
e 2 5
e 2 6
e 2 7
e 2 8
e 2 9
e 2 10
e 2 12
e 2 15
e 2 16
e 2 17
e 2 21
e 2 24
e 2 36
e 2 37
e 2 39
e 2 50
e 2 55
e 2 59
e 2 68
e 2 73
e 2 80
e 2 82
e 2 86
e 2 101
e 2 115
e 2 124
e 3 5
e 3 7
e 3 14
e 3 19
e 3 27
e 3 41
e 3 47
e 3 57
e 3 72
e 3 91
e 3 93
e 3 100
e 3 105
e 3 126
e 4 5
e 4 6
e 4 17
e 4 18
e 4 52
e 4 77
e 4 106
e 5 6
e 5 7
e 5 8
e 5 9
e 5 10
e 5 13
e 5 14
e 5 15
e 5 17
e 5 18
e 5 20
e 5 22
e 5 23
e 5 24
e 5 26
e 5 27
e 5 28
e 5 30
e 5 31
e 5 33
e 5 36
e 5 37
e 5 43
e 5 44
e 5 45
e 5 48
e 5 51
e 5 54
e 5 59
e 5 61
e 5 63
e 5 67
e 5 68
e 5 69
e 5 73
e 5 75
e 5 77
e 5 84
e 5 87
e 5 98
e 5 99
e 5 102
e 5 103
e 5 113
e 5 117
e 5 121
e 5 128
e 5 129
e 5 133
e 5 134
e 5 137
e 6 9
e 6 11
e 6 16
e 6 20
e 6 24
e 6 32
e 6 39
e 6 42
e 6 52
e 6 55
e 6 57
e 6 71
e 6 76
e 6 80
e 6 123
e 6 127
e 6 133
e 7 8
e 7 10
e 7 13
e 7 15
e 7 19
e 7 25
e 7 29
e 7 38
e 7 52
e 7 55
e 7 60
e 7 73
e 7 81
e 7 92
e 7 103
e 7 112
e 7 114
e 7 120
e 7 131
e 7 132
e 8 9
e 8 11
e 8 12
e 8 13
e 8 15
e 8 19
e 8 20
e 8 24
e 8 26
e 8 31
e 8 35
e 8 44
e 8 49
e 8 51
e 8 61
e 8 62
e 8 65
e 8 66
e 8 68
e 8 69
e 8 75
e 8 79
e 8 96
e 8 100
e 8 101
e 8 103
e 8 107
e 8 111
e 8 113
e 8 116
e 8 117
e 8 130
e 9 10
e 9 11
e 9 18
e 9 22
e 9 25
e 9 28
e 9 30
e 9 32
e 9 45
e 9 60
e 9 69
e 9 83
e 9 97
e 9 98
e 9 108
e 9 125
e 9 137
e 10 11
e 10 14
e 10 16
e 10 17
e 10 31
e 10 36
e 10 37
e 10 38
e 10 44
e 10 57
e 10 59
e 10 65
e 10 74
e 10 77
e 10 80
e 10 83
e 10 136
e 11 12
e 11 20
e 11 29
e 11 42
e 11 45
e 11 53
e 11 54
e 11 70
e 11 71
e 11 85
e 11 90
e 11 94
e 11 97
e 11 101
e 11 107
e 11 118
e 11 120
e 11 122
e 12 14
e 12 21
e 12 26
e 12 33
e 12 46
e 12 48
e 12 70
e 12 90
e 12 108
e 12 109
e 13 19
e 13 21
e 13 31
e 13 45
e 13 58
e 13 60
e 13 63
e 13 112
e 13 135
e 14 26
e 14 37
e 14 56
e 14 68
e 14 87
e 14 91
e 14 122
e 15 25
e 15 35
e 15 54
e 15 76
e 15 121
e 16 22
e 16 25
e 16 35
e 16 38
e 16 43
e 16 48
e 16 51
e 16 58
e 16 76
e 16 78
e 16 86
e 16 87
e 16 88
e 16 105
e 16 109
e 16 119
e 16 125
e 16 137
e 17 21
e 17 23
e 17 28
e 17 29
e 17 58
e 17 87
e 17 88
e 17 121
e 18 30
e 18 33
e 18 36
e 18 60
e 18 125
e 19 27
e 19 46
e 19 57
e 19 65
e 19 70
e 19 72
e 19 82
e 19 115
e 19 129
e 19 136
e 20 30
e 20 32
e 20 40
e 20 43
e 20 46
e 20 77
e 20 108
e 20 120
e 21 22
e 21 39
e 21 41
e 21 42
e 21 126
e 22 23
e 22 33
e 22 41
e 22 84
e 22 92
e 22 113
e 23 29
e 23 34
e 23 40
e 23 67
e 23 74
e 23 86
e 23 116
e 23 122
e 23 138
e 24 63
e 24 75
e 24 78
e 24 96
e 24 104
e 24 115
e 25 28
e 25 130
e 26 67
e 26 89
e 26 103
e 27 35
e 27 105
e 27 123
e 28 38
e 28 74
e 28 123
e 28 126
e 28 132
e 29 34
e 29 58
e 29 63
e 30 34
e 30 46
e 30 49
e 30 66
e 30 71
e 30 102
e 30 119
e 31 40
e 31 56
e 31 108
e 32 40
e 32 54
e 33 50
e 33 91
e 33 94
e 33 112
e 33 124
e 34 50
e 34 53
e 34 62
e 34 64
e 34 66
e 34 69
e 34 73
e 35 56
e 35 88
e 35 110
e 35 135
e 36 64
e 36 99
e 36 133
e 37 41
e 37 44
e 37 47
e 37 48
e 37 104
e 37 106
e 37 115
e 37 127
e 37 128
e 38 39
e 38 42
e 38 43
e 38 49
e 38 61
e 38 79
e 38 91
e 38 94
e 39 49
e 39 71
e 39 83
e 39 94
e 39 95
e 39 107
e 39 111
e 39 120
e 41 47
e 41 129
e 42 56
e 42 117
e 43 52
e 43 53
e 43 55
e 43 62
e 43 80
e 44 89
e 44 110
e 45 81
e 45 99
e 46 53
e 46 62
e 46 70
e 47 75
e 47 119
e 48 61
e 48 78
e 48 110
e 48 113
e 48 134
e 50 93
e 50 98
e 50 100
e 51 67
e 51 137
e 53 64
e 53 76
e 53 86
e 53 101
e 53 102
e 53 111
e 53 118
e 53 124
e 53 127
e 53 136
e 54 81
e 54 118
e 55 59
e 55 82
e 55 96
e 55 114
e 57 74
e 57 84
e 57 116
e 58 64
e 58 104
e 59 66
e 59 72
e 60 82
e 60 128
e 60 131
e 61 111
e 62 114
e 63 93
e 64 92
e 65 93
e 65 107
e 65 131
e 65 132
e 66 81
e 66 85
e 68 72
e 68 79
e 68 125
e 70 85
e 70 95
e 70 97
e 70 110
e 70 126
e 71 79
e 71 88
e 71 100
e 72 92
e 72 117
e 72 132
e 73 85
e 75 131
e 77 84
e 78 95
e 78 116
e 79 95
e 79 138
e 80 83
e 80 97
e 80 105
e 81 122
e 81 135
e 85 118
e 86 114
e 86 130
e 87 90
e 87 98
e 88 89
e 88 90
e 88 96
e 88 133
e 89 99
e 89 112
e 90 136
e 91 106
e 93 124
e 94 130
e 95 129
e 96 106
e 97 102
e 99 121
e 100 134
e 106 109
e 107 127
e 113 119
e 113 128
e 117 123
e 123 135
e 124 138
e 132 134
e 136 138
